76 47 47 76 76 47 47 47 76 76 76 47 47 76 76 76 47 47 47 47 76 76 76 76 47 47 47 47 47 76 47 47 47 76 47 47 76 76 47 76 76 47 47 47 47 76 47 76 47 76 47 47 76 47 47 47 47 76 76 76 47 76 47 76 76 76 76 76 76 47 47 76 76 76 47 47 76 76 47 47 76 47 76 76 76 76 47 47 76 76 47 47 76 76 76 76 76 76 47 76 47 76 76 47 76 47 76 47 47 47 76 47 76 47 47 47 47 47 76 47 47 76 47 47 76 47 47 47 47 76 47 76 76 76 47 47 47 47 76 47 76 76 76 47 47 76 76 76 47 76 76 76 76 47 47 47 76 76 76 47 47 47 47 47 47 76 76 47 47 76 76 47 47 76 76 76 76 76 47 47 47 47 47 47 76 76 76 76 47 76 47 76 76 76 47 47 76 76 76 47 76 76 76 47 47 47 76 47 47 47 47 76 76 76 76 76 47 76 76 76 47 47 76 47 47 47 76 47 47 47 76 76 47 76 47 76 47 47 76 47 76 47 47 76 47 47 76 76 76 76 76 47 47 76 76 76 76 76 47 47 47 47 47 47 76 47 47 47 76 47 76 47 76 76 47 76 47 76 76 47 76 47 76 76 47 76 76 47 47 76 47 76 47 76 47 47 47 47 47 76 76 47 47 47 47 76 47 47 76 47 76 47 76 47 47 76 47 47 47 76 47 76 47 47 47 76 76 76 47 47 76 76 47 47 47 76 76 76 47 76 47 76 47 76 47 76 76 76 76 47 47 47 76 76 76 47 76 47 47 76 76 76 76 47 47 47 76 47 47 47 76 76 47 47 76 76 76 76 47 76 76 76 47 76 76 76 47 76 47 76 76 47 76 76 47 76 47 47 47 76 76 47 47 76 47 47 76 47 76 47 47 76 47 76 76 47 76 47 76 47 47 76 47 76 47 76 76 76 47 47 47 47 47 76 47 76 47 76 47 47 47 76 47 47 76 47 76 47 76 76 76 76 47 47 76 76 47 76 76 76 47 47 76 76 47 47 76 47 47 47 76 47 47 76 76 76 47 76 47 76 47 47 76 76 47 76 76 76 76 76 47 47 76 47 76 47 76 76 76 76 76 47 47 47 47 47 47 76 47 76 76 76 76 76 76 47 76 76 47 76 47 76 76 47 47 76 76 76 76 47 76 76 76 47 76 47 76 47 47 47 76 76 76 76 76 76 47 47 47 76 47 76 47 47 47 76 47 47 76 76 76 76 76 76 47 76 47 47 76 47 47 76 47 47 76 47 47 47 76 76 47 76 76 76 47 47 47 47 47 47 47 47 76 47 76 47 76 47 47 76 76 76 76 47 47 76 47 76 47 47 47 76 47 47 47 47 47 76 76 76 47 47 47 47 76 47 47 76 47 76 76 47 76 76 47 47 76 76 47 47 47 76 76 47 76 47 76 47 47 76 47 76 47 76 76 47 76 47 76 47 47 76 76 47 47 47 76 47 47 47 47 47 76 47 76 76 76 76 47 47 76 76 47 47 76 47 76 76 76 76 47 47 47 76 76 76 47 76 47 47 76 76 76 76 47 76 76 47 76 47 76 76 47 76 47 47 47 47 76 76 76 47 47 47 47 76 47 47 76 76 76 76 47 76 76 76 76 76 76 76 47 76 76 76 76 47 76 76 76 76 76 76 47 47 47 47 47 76 76 76 47 76 76 76 76 47 76 76 47 76 76 47 47 76 47 47 47 47 47 47 47 47 76 47 47 47 76 76 76 76 76 47 76 47 47 76 76 47 76 47 76 76 76 47 76 76 76 47 47 76 76 47 47 76 76 76 76 76 47 76 76 47 47 76 76 76 76 76 47 76 76 47 76 76 76 76 76 47 47 76 47 47 47 76 76 47 47 76 47 76 76 47 47 47 47 76 47 47 76 76 47 76 76 47 47 76 47 47 47 76 47 76 47 76 47 47 47 76 47 76 76 47 47 47 76 76 47 47 47 76 76 76 76 76 47 47 76 76 47 76 76 76 76 76 47 47 47 76 47 47 47 47 76 76 47 47 47 76 76 76 76 76 47 47 76 76 76 47 47 47 47 47 76 47 47 47 47 47 47 76 76 76 76 76 47 47 47 76 47 76 76 76 76 47 47 47 76 47 76 47 47 47 76 47 76 76 76 47 47 47 76 47 76 76 47 47 47 47 47 76 47 47 76 47 47 47 76 47 47 76 76 76 47 76 47 76 76 47 47 47 76 47 76 76 47 76 47 76 47 76 47 76 76 47 47 47 47 76 76 76 76 76 76 76 76 47 76 47 76 47 76 76 47 47 47 76 47 76 47 76 47 76 76 47 47 47 76 76 47 76 76 76 76 76 76 76 47 76 47 47 47 76 76 76 47 47 47 76 47 76 76 76 76 76 47 47 47 47 76 47 47 76 47 47 47 47 76 76 47 47 76 76 47 76 47 76 47 76 76 76 76 76 47 76 76 76 47 76 76 47 47 47 76 76 47 47 47 47 47 76 76 47 76 76 47 47 76 76 47 47 47 47 47 76 47 76 76 47 76 76 76 47 76 76 47 47 47 76 76 47 76 76 76 76 76 76 76 47 76 47 76 47 47 47 47 76 47 76 47 47 76 76 76 76 76 47 47 76 47 47 47 47 76 47 76 76 47 76 47 76 47 47 47 76 47 47 47 76 47 76 76 47 76 76 76 47 76 47 47 47 47 76 47 47 47 47 47 47 47 47 47 76 76 76 47 47 47 76 76 76 76 76 76 47 76 76 76 76 47 47 76 76 47 47 47 76 76 47 47 47 76 76 47 76 47 76 76 76 76 76 47 47 76 47 76 76 47 76 47 76 47 47 47 76 76 76 76 76 47 76 47 47 76 76 76 47 47 76 76 47 76 47 76 76 76 76 76 47 76 47 47 47 76 76 47 76 47 76 76 76 76 47 76 76 76 76 76 47 76 76 76 76 47 47 76 47 47 76 76 76 76 47 47 76 76 47 47 47 47 47 47 47 47 47 47 47 47 47 76 47 47 76 47 76 47 47 47 47 76 47 47 76 47 76 76 47 47 47 76 76 47 47 47 76 47 47 47 76 76 47 76 76 47 47 76 47 47 76 76 47 47 47 47 76 47 47 47 47 47 47 47 76 47 47 76 76 76 47 76 76 76 76 76 47 76 47 76 47 47 76 76 76 47 47 47 47 76 76 76 47 76 47 47 47 76 47 47 76 76 47 47 76 76 47 76 76 76 76 47 47 47 47 76 76 76 47 47 76 47 47 76 47 47 47 76 47 47 47 76 47 47 47 76 47 76 76 47 47 76 76 76 47 47 76 76 47 47 47 47 47 47 47 76 76 47 47 47 76 76 47 47 47 76 47 76 47 47 47 76 76 47 76 47 76 47 47 47 76 47 47 47 76 76 76 76 47 47 47 47 47 47 47 47 47 76 47 76 76 47 76 76 76 47 47 47 76 47 76 76 76 47 76 76 76 76 76 47 47 47 47 76 76 76 47 76 76 47 76 76 76 47 76 76 76 76 47 76 47 76 76 47 47 76 47 47 76 47 47 47 76 76 76 47 76 47 47 76 76 47 47 76 76 47 47 76 47 76 76 76 76 47 47 76 47 76 47 76 47 76 47 76 76 47 47 76 47 76 47 47 47 76 76 76 47 47 76 47 47 47 47 76 76 47 76 47 47 47 47 47 76 47 47 76 76 76 47 47 76 76 47 47 76 47 47 47 76 76 76 47 47 76 47 47 47 47 76 76 47 76 47 47 47 76 47 47 76 76 47 76 76 76 76 76 47 47 76 47 47 76 76 76 76 76 47 47 47 76 76 76 76 47 47 47 76 47 76 76 47 47 47 76 47 47 76 76 76 76 47 76 47 76 76 47 76 76 47 47 76 47 76 76 76 47 47 76 76 47 47 76 47 76 76 76 47 76 47 47 47 76 47 76 76 76 47 76 76 76 76 76 47 76 76 76 47 47 76 76 76 47 76 47 47 76 76 76 76 47 76 47 47 47 47 76 47 47 76 47 47 76 47 47 76 47 47 76 76 47 76 47 47 76 76 76 76 76 47 76 47 47 76 47 76 47 47 76 76 47 47 76 76 47 47 76 76 76 76 47 47 76 76 76 76 76 47 76 47 76 47 76 47 47 47 47 76 76 47 47 76 47 47 76 76 76 76 76 76 47 47 47 47 47 76 76 76 47 76 47 47 47 47 76 76 47 47 47 47 47 76 47 76 47 47 76 47 76 76 47 47 76 76 76 47 76 76 47 47 47 76 76 76 76 76 47 47 76 76 76 47 76 76 47 47 47 47 76 47 47 47 76 47 47 47 47 76 47 76 47 76 47 76 47 47 76 76 76 76 76 76 47 76 76 76 47 76 47 47 47 47 76 76 76 47 47 47 47 76 76 47 47 47 47 76 76 47 76 76 76 76 76 47 76 47 76 47 47 47 76 76 76 76 76 47 47 47 76 47 76 76 76 47 47 47 47 47 76 47 47 76 47 76 76 47 47 76 76 76 47 76 76 76 76 47 47 47 76 47 76 76 76 76 47 47 47 76 47 76 47 76 76 76 76 76 47 47 76 47 47 76 47 76 76 47 47 47 47 47 76 47 76 76 76 47 76 47 76 47 47 47 47 76 76 76 76 47 47 47 47 47 47 76 47 47 76 76 76 47 47 76 76 47 47 76 47 47 76 47 76 47 76 47 47 76 47 76 76 47 47 47 76 76 47 47 47 47 47 47 76 76 47 47 76 76 47 47 47 47 76 47 47 76 47 76 47 76 76 47 47 47 76 47 47 47 76 76 47 47 47 47 76 47 76 76 47 76 47 47 47 47 76 76 47 47 47 76 76 47 47 47 47 47 47 76 47 47 47 76 47 76 47 47 47 76 47 47 76 76 76 47 47 76 76 76 76 47 47 76 76 76 47 47 76 76 76 47 76 47 47 47 47 76 76 47 76 47 76 76 47 76 76 76 76 76 76 76 47 47 76 47 76 76 47 76 76 47 47 76 76 76 47 47 76 47 76 47 76 76 47 47 76 47 47 47 47 76 47 76 47 76 76 47 76 47 47 76 76 76 47 76 76 76 47 47 76 76 76 76 76 47 76 47 47 47 76 76 47 47 47 47 47 47 76 47 76 76 76 76 76 47 76 47 47 47 76 47 47 76 76 76 47 76 47 76 47 47 47 47 76 76 76 76 47 76 47 47 76 47 47 47 76 47 76 76 76 76 47 76 76 47 76 47 47 47 76 47 76 47 76 76 47 76 76 76 76 76 47 47 47 76 76 76 47 76 76 47 76 47 47 76 47 47 47 76 76 47 47 76 76 47 47 47 47 47 47 76 47 76 47 47 76 47 47 47 47 47 47 47 76 76 47 47 76 76 76 76 76 47 47 76 47 76 76 76 47 47 76 47 76 47 76 76 76 47 76 47 76 47 76 76 47 47 76 47 76 76 76 76 47 47 76 76 47 76 47 76 76 47 47 76 47 47 76 47 76 76 47 76 47 47 47 47 47 47 76 47 47 76 47 76 47 47 47 76 76 76 47 76 47 76 76 76 76 76 76 76 47 47 47 76 76 76 47 47 47 76 76 76 76 47 76 76 47 47 76 47 47 47 47 47 76 47 47 76 47 47 76 76 76 47 47 47 47 76 76 76 76 47 76 47 76 47 47 47 76 47 76 76 47 47 47 47 76 76 47 76 76 47 76 76 47 47 47 76 76 76 47 76 47 47 47 47 76 76 47 47 76 47 47 47 47 76 76 47 76 47 47 76 76 76 47 47 47 76 76 47 76 47 76 47 76 47 47 47 76 76 76 76 47 47 47 76 47 47 76 47 76 47 76 76 47 47 76 47 47 76 76 76 47 76 47 47 76 76 76 76 76 76 76 76 47 47 76 76 76 76 76 76 76 76 76 47 47 76 76 76 76 47 76 47 47 76 47 47 76 47 47 47 76 47 47 47 76 47 76 76 76 76 76 76 76 47 47 47 47 76 47 76 47 76 47 76 76 76 76 76 76 47 47 76 47 76 47 47 76 47 76 76 47 76 76 47 47 47 76 47 47 76 47 76 76 76 47 76 47 47 76 47 76 76 47 47 76 76 47 76 76 47 76 47 47 76 47 47 76 47 76 47 47 47 76 47 47 47 47 76 76 76 47 76 76 76 76 76 47 47 47 47 76 47 76 47 76 47 76 76 47 76 47 76 47 47 76 47 76 47 47 76 47 47 47 47 47 47 76 76 76 47 47 76 76 76 47 76 47 76 76 76 76 76 47 76 47 47 47 76 76 76 76 76 47 47 47 47 76 47 47 76 76 47 76 47 47 76 47 76 76 76 47 76 76 76 76 47 47 47 47 47 76 76 47 47 47 47 76 76 76 76 76 47 47 47 76 76 47 47 76 47 47 47 47 47 47 76 47 76 47 76 76 47 76 47 47 76 76 47 76 47 47 76 76 76 47 76 76 76 47 47 47 47 76 47 76 76 47 47 76 76 76 76 76 76 76 47 76 76 76 76 47 76 47 47 76 76 47 47 47 47 76 76 76 76 47 76 76 76 76 47 47 76 47 47 76 47 76 47 76 76 47 47 76 76 47 47 47 76 76 76 47 76 76 47 76 76 76 47 76 76 76 47 76 47 76 76 47 76 47 47 47 47 76 47 47 47 76 76 76 76 76 47 76 47 47 47 47 47 76 47 47 76 47 47 47 47 47 76 76 47 47 47 76 76 76 47 47 47 76 47 47 76 47 76 47 76 47 76 47 47 76 76 47 47 47 76 76 76 47 76 47 76 47 47 76 76 47 76 47 47 47 76 47 76 76 47 76 47 47 47 76 47 47 47 76 76 76 47 47 47 47 76 47 47 76 76 47 47 76 76 76 47 76 47 76 47 76 76 76 76 76 47 47 47 76 76 76 76 47 47 47 76 47 47 47 47 47 76 76 47 76 76 76 47 76 76 76 76 47 76 76 47 47 76 76 76 76 76 76 47 47 76 47 47 47 47 76 76 47 47 47 76 47 47 47 47 76 47 76 47 47 76 76 47 76 76 47 76 47 47 47 76 47 47 47 76 76 76 76 47 47 47 47 76 47 76 76 47 47 76 76 47 76 76 76 47 76 47 47 47 76 47 76 76 76 47 76 76 47 47 47 76 76 47 47 47 47 47 76 47 47 76 76 47 76 76 76 47 47 76 76 47 47 76 47 47 76 76 47 47 47 76 76 47 47 47 47 47 76 47 76 47 76 76 76 76 76 47 47 47 47 76 76 76 76 76 47 76 76 76 76 47 76 76 76 76 47 47 47 47 47 47 76 47 47 76 47 47 47 47 76 76 47 76 76 47 76 47 76 76 47 76 47 76 76 76 76 47 47 47 76 76 76 76 47 47 76 47 76 76 76 76 76 47 76 47 76 47 76 76 47 76 76 47 76 76 47 76 47 76 47 47 47 47 47 76 76 76 47 76 76 47 76 76 76 76 47 47 47 76 47 47 76 76 76 76 76 47 76 76 47 47 47 76 76 47 47 76 47 76 76 47 76 76 47 76 76 47 47 76 47 47 47 47 47 47 47 47 76 47 47 47 76 47 76 76 76 47 76 47 47 76 76 47 76 47 76 76 76 47 76 47 76 47 76 47 76 47 47 76 76 76 76 76 47 76 76 47 47 76 76 76 76 76 76 76 76 76 47 76 47 47 76 76 47 76 47 47 76 76 76 76 47 76 47 76 76 47 76 47 76 76 47 76 47 47 47 47 47 76 47 47 47 47 47 76 76 76 76 76 47 76 76 76 76 47 76 76 47 76 47 47 47 76 47 76 76 76 47 47 76 76 76 76 76 47 76 76 76 76 76 47 76 76 47 76 76 47 76 47 76 47 76 47 76 47 47 76 76 76 47 76 76 76 76 76 47 47 76 47 47 76 76 76 47 47 76 47 47 47 76 47 76 76 76 76 47 47 76 47 47 76 76 47 76 76 76 47 47 76 47 47 47 47 47 76 47 47 47 76 76 47 47 47 47 47 47 76 76 76 76 47 76 76 76 76 76 76 47 76 47 76 47 76 76 76 76 47 47 47 47 76 76 76 47 47 47 76 47 47 76 47 76 76 47 76 76 76 47 76 76 76 76 47 76 76 47 76 47 76 47 76 76 47 76 47 76 47 76 47 76 76 47 76 47 76 47 47 76 76 47 76 76 76 47 76 76 76 76 76 47 47 76 47 76 47 47 76 76 47 47 47 47 76 47 76 47 76 76 47 76 47 76 76 47 47 76 76 76 76 76 47 47 76 76 47 47 47 47 76 76 47 47 76 47 76 76 76 47 76 76 47 76 76 76 47 47 76 47 47 47 47 76 76 76 47 76 47 76 47 47 47 76 76 47 76 47 47 76 76 76 76 47 76 76 47 47 76 76 47 47 47 76 76 47 76 47 47 76 47 47 47 76 47 76 47 47 47 47 76 47 47 76 76 47 47 76 76 47 76 47 76 47 76 76 76 76 47 76 76 47 47 76 47 76 76 47 76 47 76 76 76 47 76 76 76 47 76 76 76 76 76 47 47 76 47 76 76 47 76 47 76 47 47 47 47 47 76 47 76 76 47 76 47 76 76 47 47 47 76 76 47 76 47 47 76 76 47 76 47 47 47 47 76 76 47 47 47 47 47 47 76 76 47 47 76 76 47 76 47 47 76 76 47 47 47 47 47 76 47 47 47 47 76 47 47 47 47 47 47 76 76 47 76 76 76 47 76 47 47 47 76 47 47 47 76 47 76 47 47 76 76 47 47 47 76 76 76 47 47 47 47 76 76 76 76 47 47 76 76 76 47 47 47 76 76 47 47 47 76 47 47 47 76 76 76 76 76 76 76 76 76 47 76 76 47 76 47 76 76 76 76 47 47 47 47 47 76 47 76 47 76 47 76 76 47 76 76 76 76 76 76 76 76 76 47 47 76 76 76 76 76 76 47 47 76 76 47 76 47 47 47 47 47 47 47 76 47 76 76 76 76 76 76 76 76 47 76 76 76 76 76 76 76 47 76 76 76 47 47 47 76 76 47 47 76 76 76 47 76 76 47 47 47 76 47 47 47 47 76 47 47 76 76 76 76 76 76 76 47 47 47 47 76 76 47 76 47 47 47 47 47 47 76 76 47 76 76 76 47 76 76 47 76 76 47 76 76 47 76 47 47 76 76 47 76 47 47 47 76 76 47 76 47 47 76 76 47 76 47 47 76 47 76 47 47 47 47 47 76 76 76 47 76 76 76 76 76 47 76 76 76 47 76 47 76 47 76 76 47 47 47 76 76 47 47 47 76 76 76 76 76 76 76 76 76 76 47 76 76 47 47 76 76 47 47 76 76 47 76 76 76 47 76 76 76 47 47 76 47 47 47 76 47 47 76 76 47 47 76 47 76 47 47 76 47 47 47 47 76 47 47 47 47 47 47 47 76 47 76 76 76 47 76 76 76 76 76 47 76 76 47 76 76 76 47 47 47 76 76 76 47 76 47 76 47 76 76 76 47 76 76 76 47 76 76 47 76 76 76 76 76 47 47 76 76 76 47 47 76 76 47 47 76 76 76 47 47 76 47 76 76 47 76 47 47 76 76 76 76 76 76 47 76 47 47 76 47 47 47 47 47 47 47 47 47 47 76 76 47 76 47 47 47 47 76 47 76 76 47 76 76 47 47 76 47 47 76 76 76 76 76 47 47 47 76 76 76 76 47 47 76 76 76 76 47 76 47 47 76 76 76 76 47 47 47 76 76 47 47 76 47 47 47 76 76 47 47 76 76 76 47 76 76 47 76 47 47 47 47 47 47 47 47 47 76 76 47 47 76 76 47 47 47 47 76 47 76 47 47 76 47 76 47 47 47 47 76 76 47 47 47 76 76 47 47 47 47 47 76 47 47 47 47 47 76 47 76 47 76 76 47 47 76 76 76 76 76 76 76 47 76 76 47 76 47 47 47 76 76 47 76 47 47 47 76 47 76 47 76 76 47 76 47 47 76 47 47 76 47 76 47 47 76 47 76 47 76 47 47 76 47 47 47 76 76 76 47 76 47 76 76 76 76 47 47 76 76 47 47 76 47 76 47 47 47 47 76 47 47 47 47 76 47 47 76 47 47 47 76 76 47 76 76 47 76 47 76 76 76 47 76 47 47 76 76 47 47 76 76 76 76 76 76 47 47 76 76 76 76 76 76 47 47 76 47 47 47 47 47 76 76 76 47 47 76 76 76 47 76 47 76 76 47 76 47 76 47 76 76 47 76 76 76 47 76 47 76 47 76 76 47 76 76 47 76 76 47 76 47 47 47 47 76 76 76 47 76 47 47 76 76 76 76 76 47 76 76 76 76 76 76 47 47 76 76 47 76 47 47 47 47 47 47 47 47 47 76 76 76 76 76 76 76 47 76 47 47 76 47 47 47 47 47 76 47 47 47 47 47 76 47 76 47 76 47 47 47 47 47 47 47 47 47 47 76 47 47 76 76 76 47 47 76 76 47 47 76 76 47 47 76 76 47 76 76 76 47 47 47 76 76 47 47 47 76 76 76 47 76 76 76 47 47 76 76 76 47 76 76 76 47 47 76 76 47 76 76 76 47 47 76 47 76 47 76 47 47 47 76 47 47 76 47 47 76 47 47 76 47 76 76 76 47 47 76 76 47 76 76 47 47 76 76 76 47 47 47 47 76 47 76 47 76 47 76 76 76 76 76 47 76 47 47 47 76 47 47 47 47 47 76 47 47 47 47 76 76 76 47 76 47 76 47 47 47 76 76 76 76 76 47 76 47 47 47 47 76 76 47 76 47 47 47 76 76 76 76 76 76 76 76 47 76 76 47 47 76 47 47 76 47 47 76 47 76 47 76 76 47 47 76 76 47 47 76 47 47 76 76 47 76 76 47 76 76 76 76 76 47 47 76 76 76 76 47 76 47 76 47 76 47 47 76 76 47 76 76 76 47 76 76 47 76 47 76 47 47 76 47 76 47 76 76 76 76 76 76 76 76 47 76 47 47 47 76 76 47 76 76 76 76 76 76 76 47 76 47 76 76 47 76 47 47 47 47 47 47 76 47 47 47 76 76 76 47 76 76 76 76 47 47 76 47 47 47 47 47 76 47 47 47 76 76 76 47 76 76 76 76 47 47 47 47 47 76 76 76 76 47 76 47 76 47 47 47 76 76 76 76 47 47 76 47 47 76 76 47 76 76 47 76 47 47 47 47 47 76 47 47 47 47 47 47 76 76 76 76 76 76 47 47 47 47 47 76 47 47 76 76 76 47 76 47 76 47 76 47 47 47 47 76 47 76 47 47 76 47 76 76 47 47 47 76 76 76 47 47 76 47 47 76 76 47 47 47 47 76 76 76 47 47 47 76 47 76 76 47 76 76 47 47 47 47 76 47 47 47 76 47 76 76 47 76 47 47 47 76 47 76 47 76 47 76 47 47 76 47 76 76 47 76 76 76 47 76 47 76 47 47 76 47 47 47 47 47 76 47 47 47 47 76 76 76 76 47 47 47 76 76 47 47 76 47 47 47 47 76 47 76 47 47 47 47 47 47 76 47 76 47 47 47 76 47 47 76 76 47 47 76 47 47 47 47 76 76 76 76 76 47 76 47 47 76 76 76 47 76 47 47 76 76 76 76 47 47 76 47 76 76 47 47 47 76 76 47 76 76 47 76 76 76 76 47 76 76 47 47 47 76 76 47 47 76 47 76 47 47 76 76 47 47 47 76 76 76 76 76 76 47 47 76 47 47 47 47 47 76 76 76 47 76 47 76 76 76 76 76 76 76 76 47 76 47 76 76 47 76 76 76 47 47 76 47 76 76 76 76 76 47 76 47 47 76 47 76 76 76 76 76 76 76 76 76 47 76 76 47 76 47 47 47 76 47 76 47 47 47 47 76 76 47 47 47 47 47 47 76 47 47 76 47 47 76 76 47 76 76 76 76 47 47 76 76 76 76 47 76 47 76 76 47 47 47 47 47 76 76 47 47 76 47 47 47 76 47 76 76 47 76 47 47 47 47 47 76 47 76 76 47 76 76 76 47 47 47 76 76 76 47 47 76 47 76 47 47 47 76 47 47 76 76 76 76 47 47 76 47 47 76 76 47 76 76 76 47 76 47 47 76 76 47 76 47 47 47 76 47 47 76 76 76 76 76 76 76 47 76 47 76 76 47 47 76 47 47 47 47 76 47 47 47 76 47 76 47 47 47 76 76 47 76 76 47 76 76 47 47 76 76 47 76 47 76 76 47 76 76 76 76 47 76 47 47 47 76 76 76 47 47 47 76 47 47 47 76 76 47 47 76 47 47 47 47 47 47 76 47 47 76 76 76 76 47 47 76 47 76 76 76 47 47 76 76 47 76 76 47 47 76 47 76 47 76 47 76 76 47 76 47 76 76 76 76 47 47 76 47 47 47 47 76 76 76 47 47 76 47 76 47 47 76 47 76 76 47 47 76 76 47 76 76 47 76 47 76 47 47 47 47 76 47 47 47 47 76 76 47 76 47 76 47 47 47 76 47 76 47 76 47 76 76 47 47 76 76 47 47 76 47 76 76 76 76 47 47 76 76 76 76 47 76 76 76 47 76 47 76 47 47 47 47 47 76 76 47 47 47 47 47 76 47 47 76 47 47 47 76 47 47 76 76 47 76 76 47 76 47 47 47 47 76 76 76 76 76 76 47 76 47 76 76 76 76 47 76 47 76 76 76 76 76 76 47 47 76 76 47 47 47 47 76 47 47 47 76 76 47 47 76 76 76 76 76 76 47 76 47 76 76 47 76 47 47 47 76 47 76 47 76 47 76 47 47 76 76 47 76 47 76 76 47 76 76 47 76 76 76 47 76 76 76 76 47 47 47 47 76 47 47 47 47 47 76 76 47 76 47 47 47 47 47 76 76 76 47 76 76 47 76 76 76 76 76 47 76 47 47 76 47 76 47 76 47 47 76 47 47 47 76 76 76 76 76 76 76 76 47 76 47 47 76 47 47 76 47 47 47 76 76 76 76 47 76 47 47 76 76 76 47 47 47 76 47 47 76 47 47 47 47 47 76 47 76 76 47 47 47 76 47 47 47 47 47 47 47 76 76 47 76 47 76 47 47 47 47 76 76 76 47 47 47 76 76 76 76 47 47 47 76 47 47 47 76 76 76 47 76 76 47 76 76 47 76 47 47 47 47 47 47 47 47 47 47 47 47 47 47 76 76 47 47 47 76 76 47 76 47 47 47 76 76 47 76 76 76 47 47 76 76 76 47 47 47 76 47 76 47 76 47 47 47 76 47 47 76 76 47 76 76 76 76 76 47 76 76 76 47 47 76 76 47 47 47 47 47 76 47 76 76 76 47 47 47 76 76 47 47 76 47 47 76 76 47 76 76 47 76 76 76 76 76 47 47 47 76 76 76 76 76 76 76 47 76 47 76 76 47 47 76 76 76 47 76 47 47 47 76 47 47 76 47 47 47 76 76 76 76 76 76 76 47 76 47 47 76 47 47 47 76 76 47 76 47 76 47 76 47 47 47 76 47 76 47 47 76 47 47 76 76 47 76 47 47 47 76 47 47 47 76 47 47 76 76 76 76 47 76 47 47 47 47 76 47 76 47 47 47 76 47 47 47 47 76 47 47 76 76 76 76 47 47 47 47 47 76 47 47 76 76 76 76 47 76 47 47 76 47 76 76 76 76 76 76 76 47 47 47 47 47 47 76 76 76 47 76 76 76 47 47 76 47 47 47 47 76 76 47 47 47 76 76 47 76 76 47 47 47 76 76 76 47 47 76 76 76 76 76 47 47 47 47 76 76 47 76 47 47 47 76 76 47 76 47 47 76 47 76 47 47 47 47 47 76 76 47 76 76 47 47 76 47 47 76 47 76 76 76 47 76 47 76 47 47 47 47 76 76 47 47 76 76 47 47 76 47 76 47 47 47 76 47 76 47 76 76 47 76 76 47 76 47 47 76 47 76 47 47 47 76 76 47 47 47 76 47 76 76 76 76 47 47 47 76 76 47 76 76 76 76 47 76 76 76 76 47 76 47 76 47 76 76 76 47 76 76 76 76 76 47 76 76 76 76 76 76 47 76 76 47 76 47 76 76 47 76 47 76 76 47 47 76 76 76 47 76 76 47 76 47 76 47 47 76 47 47 47 76 47 47 76 47 47 76 76 76 76 47 76 76 47 76 76 47 76 47 47 76 47 47 47 47 76 76 76 47 47 47 76 76 76 76 76 47 76 76 76 76 47 76 47 76 76 47 47 76 47 76 47 76 76 76 47 76 47 47 76 76 76 76 47 47 76 47 76 76 47 76 76 76 47 47 47 47 47 76 76 76 47 47 76 47 47 47 47 76 47 47 47 47 47 76 76 47 47 47 47 76 47 76 76 76 47 47 76 76 76 76 76 47 47 76 76 76 76 47 47 47 47 76 76 76 76 47 76 47 76 47 47 47 47 47 76 47 47 76 47 47 76 76 76 47 76 76 47 76 47 76 47 76 76 76 47 76 47 47 47 47 76 76 76 76 76 76 47 47 76 76 76 76 76 76 47 47 76 47 47 47 47 47 76 76 47 47 76 76 76 76 47 76 76 47 76 76 76 47 47 76 76 47 47 76 47 76 47 47 47 47 47 47 76 47 47 47 76 47 47 76 47 76 76 76 47 47 76 47 76 76 76 76 47 47 47 47 47 76 76 47 47 47 76 47 76 47 76 76 76 47 76 76 47 47 76 47 76 76 76 76 76 76 47 76 47 76 47 47 76 47 76 76 47 76 47 47 47 76 76 47 47 76 47 47 47 47 76 47 76 76 76 76 47 47 76 76 47 47 47 47 47 47 47 76 47 47 47 76 47 47 76 76 76 47 47 47 47 47 47 47 76 47 47 47 76 76 47 47 47 47 76 76 76 76 76 76 47 76 76 76 47 76 76 47 76 76 47 47 47 76 76 47 47 47 76 47 47 76 76 47 47 76 47 47 76 76 47 47 76 76 47 47 76 76 47 76 76 76 47 47 76 47 47 47 47 47 76 76 47 76 47 76 76 47 76 47 47 47 76 47 47 76 76 76 76 47 76 76 47 76 47 47 47 76 76 76 76 76 47 47 76 76 76 47 47 76 76 76 47 76 47 47 76 76 47 76 47 47 76 47 47 76 76 47 76 47 47 76 47 76 76 76 47 76 47 76 76 47 47 47 47 76 76 76 76 47 76 76 47 47 47 76 47 47 47 47 76 47 76 76 47 76 76 76 76 47 47 76 76 76 47 47 76 76 47 47 47 76 47 76 47 76 47 76 47 76 47 76 47 47 76 47 47 76 47 47 47 76 47 47 76 47 76 47 47 76 76 76 76 47 47 47 47 76 47 76 76 76 76 76 76 76 47 47 76 76 47 47 47 76 76 47 47 47 76 76 47 76 47 47 47 76 76 76 76 47 47 76 47 47 76 47 76 47 47 76 76 76 76 47 76 76 76 76 47 47 76 76 47 47 47 47 47 47 47 47 76 76 76 76 76 76 47 76 76 76 76 76 76 76 47 47 47 47 47 76 76 47 47 76 47 76 47 76 76 76 76 76 47 76 76 47 76 76 47 76 76 47 76 47 76 47 76 47 47 47 47 47 76 76 47 47 47 76 76 47 47 76 47 76 76 76 47 76 76 76 47 76 47 47 47 47 47 47 76 76 76 76 47 47 76 47 76 47 47 76 76 76 76 76 76 76 76 47 47 76 47 76 76 47 47 76 76 76 47 47 76 76 47 76 47 47 47 47 47 76 76 47 47 76 47 47 47 47 47 76 47 76 76 76 47 47 76 76 76 47 47 76 47 76 76 76 47 47 76 76 76 76 76 47 76 47 76 47 47 47 47 76 76 47 76 47 47 76 47 47 76 76 47 47 76 76 76 76 47 76 76 47 76 76 76 76 76 47 76 47 76 47 47 76 47 76 76 76 76 47 47 76 76 76 76 76 76 76 76 76 76 47 47 76 47 76 76 47 47 76 76 47 76 76 76 47 76 76 47 76 47 76 47 47 76 47 76 47 47 76 47 47 47 76 47 47 76 47 76 47 76 47 47 76 47 47 47 47 47 76 47 76 76 76 76 76 47 76 47 76 76 76 47 76 47 76 47 47 76 47 47 76 76 76 76 47 47 47 76 76 47 76 76 47 76 76 47 76 76 47 76 47 47 76 47 76 76 76 76 76 47 47 76 76 47 76 47 76 47 76 76 76 76 76 47 76 47 47 76 47 76 47 76 47 47 47 76 47 47 76 76 47 47 76 47 76 47 76 76 76 76 76 47 76 76 76 47 47 47 47 47 47 76 47 47 47 47 47 47 76 47 47 47 76 47 76 76 76 47 76 47 47 76 76 76 76 76 47 76 76 76 47 47 47 76 76 76 47 47 47 76 76 76 47 76 76 76 76 76 47 76 47 76 76 47 76 47 76 47 47 76 76 76 47 47 76 76 47 76 47 47 76 76 47 47 76 47 47 47 76 76 47 47 47 76 47 47 47 47 47 76 47 47 76 76 76 76 76 47 76 76 76 76 76 76 76 76 47 47 47 47 76 47 47 47 47 76 76 76 47 47 76 76 76 76 76 76 76 47 76 47 47 76 47 47 76 47 47 76 47 47 47 47 76 76 76 47 76 76 47 47 76 47 47 76 47 76 47 47 47 47 76 76 47 76 47 76 47 76 76 76 47 47 47 47 76 47 76 76 76 47 76 76 76 47 76 47 47 47 47 76 76 47 76 76 47 47 76 47 76 76 47 47 47 47 47 47 76 47 76 76 47 76 76 47 47 47 47 47 76 76 47 47 47 76 47 47 47 47 76 47 47 47 47 76 76 76 76 47 47 76 47 76 76 76 76 47 47 47 76 47 47 76 76 76 76 47 47 47 76 47 47 47 47 76 76 47 76 76 76 47 76 76 76 76 76 76 47 47 47 76 76 76 76 47 76 76 76 76 47 47 47 76 76 76 76 76 76 76 76 76 76 76 76 76 76 76 76 76 47 47 76 76 47 76 47 47 76 47 47 47 76 47 76 47 47 76 47 47 47 76 76 47 76 76 47 47 47 47 47 76 76 47 76 47 47 47 76 47 47 76 76 47 47 76 76 76 47 76 76 76 76 76 47 76 76 76 47 47 47 76 76 47 47 76 76 76 76 76 47 47 76 76 76 47 76 47 76 47 47 76 47 47 76 76 47 76 76 47 76 47 47 76 76 47 76 76 47 76 47 47 47 47 47 76 47 47 47 47 47 76 47 76 47 47 47 76 47 47 47 47 47 47 47 47 76 76 76 47 76 47 76 76 76 47 76 47 47 47 76 76 47 47 76 76 76 47 76 76 47 76 47 76 47 47 47 47 47 47 76 47 76 47 47 47 76 47 76 47 76 47 47 47 76 76 47 47 47 76 47 76 76 76 76 47 47 76 76 76 47 76 76 76 47 47 47 76 47 47 47 47 76 47 47 47 47 76 76 76 76 47 47 76 47 47 47 47 47 47 47 47 76 47 47 47 47 76 47 76 47 47 47 76 76 76 47 47 47 47 47 47 76 76 76 47 76 47 76 47 47 76 76 47 47 47 76 76 47 76 76 47 47 76 47 47 76 76 76 47 47 47 47 47 76 47 76 76 76 47 47 47 47 76 76 76 47 47 47 47 47 47 76 76 47 47 47 76 47 47 47 76 76 76 47 76 47 47 76 76 76 76 47 47 76 76 76 47 47 47 76 76 76 76 76 76 47 47 76 76 76 47 76 76 76 47 47 47 47 47 47 47 47 47 47 47 47 47 47 76 76 47 76 76 76 76 76 47 47 76 76 47 76 76 47 76 76 76 47 47 76 47 76 47 76 47 47 47 76 76 47 76 47 47 47 47 47 47 47 76 76 47 47 76 47 76 76 47 47 47 76 47 76 47 76 76 76 47 47 47 47 76 47 47 47 76 76 76 76 47 76 76 76 47 76 76 76 76 47 47 47 76 76 76 47 76 76 47 76 76 76 47 76 76 76 76 76 47 76 76 76 47 76 47 76 76 47 76 76 76 47 76 76 47 76 47 76 76 47 76 76 47 47 47 47 76 47 76 47 47 76 47 76 47 76 47 47 47 47 76 76 47 76 76 76 76 76 76 76 47 76 47 76 76 76 76 76 47 76 47 76 76 76 47 47 47 76 47 76 47 47 76 76 47 47 47 47 47 47 47 76 76 76 76 76 76 76 76 47 76 47 76 47 47 47 76 76 47 47 47 76 76 47 47 47 76 76 76 47 47 76 47 47 76 76 47 47 76 47 76 47 76 76 76 76 47 76 76 76 76 47 47 76 47 76 76 47 76 76 47 47 76 76 47 47 76 76 76 47 76 76 76 76 47 76 76 76 76 47 47 76 76 76 47 47 76 47 47 76 47 76 47 76 76 76 47 47 47 47 76 47 47 76 47 76 76 76 47 76 47 76 47 47 76 76 47 76 47 76 76 76 76 47 76 76 76 47 47 47 76 47 76 76 47 47 76 47 47 47 76 76 47 47 76 47 47 47 47 76 47 47 76 47 47 47 47 47 76 47 76 47 76 76 47 76 47 47 47 47 47 47 47 76 76 47 76 47 76 47 47 47 47 76 76 76 47 76 47 47 47 47 76 47 47 47 47 76 47 47 47 76 76 47 76 47 76 76 76 47 76 76 76 47 76 47 47 47 47 76 76 76 47 47 47 76 76 47 76 47 76 76 47 76 47 76 47 47 76 76 76 76 76 47 47 76 76 76 47 47 76 47 47 47 76 76 47 47 47 76 76 47 76 76 76 47 76 47 76 76 47 47 47 47 76 76 47 76 47 76 47 47 76 76 47 76 76 76 47 76 76 76 47 76 76 47 47 76 47 76 76 76 47 47 76 47 76 47 47 47 76 76 76 76 76 47 76 76 76 76 76 76 76 76 47 76 47 76 76 76 76 76 47 47 76 47 76 76 76 47 47 76 47 47 76 47 47 47 76 47 47 76 47 47 76 76 47 76 47 47 76 47 47 47 47 47 76 47 47 47 47 76 47 76 76 76 76 47 47 76 76 76 76 47 47 47 76 76 47 47 47 47 76 76 47 47 76 47 47 47 76 76 76 76 76 76 76 76 47 47 76 47 47 47 76 76 76 76 76 47 47 47 76 76 47 47 47 47 47 76 47 47 76 47 47 47 47 47 47 76 76 76 47 47 47 47 47 47 76 47 76 47 76 76 47 76 76 47 47 47 47 76 76 76 47 76 47 76 47 76 76 76 76 47 47 47 47 47 76 47 76 76 76 47 47 76 47 47 47 76 76 76 47 76 76 76 76 47 47 76 76 47 76 76 47 47 76 76 76 76 47 47 47 47 76 76 47 47 47 76 47 47 47 76 47 47 47 76 47 76 76 47 47 76 47 76 47 47 76 76 76 47 47 47 47 47 47 76 76 76 47 47 47 76 76 76 47 47 76 76 47 76 47 76 76 47 47 76 76 47 76 76 47 47 47 76 76 76 76 76 76 47 47 47 47 47 76 47 76 76 47 47 47 47 76 47 76 47 47 76 76 47 47 47 76 76 47 76 47 76 76 47 47 76 47 47 47 47 76 76 47 47 47 76 76 47 76 76 76 47 47 47 47 76 76 47 76 76 76 47 76 76 47 47 76 76 76 76 47 76 76 76 76 47 47 76 47 47 47 47 76 76 76 47 76 47 47 76 47 47 76 47 47 47 76 76 47 47 76 76 47 76 76 47 47 47 76 76 76 47 76 47 47 76 76 47 47 47 47 76 76 47 47 76 76 76 76 47 47 76 47 76 76 76 76 47 47 76 76 76 47 76 47 76 76 47 47 76 47 76 76 47 76 76 47 76 76 47 76 47 47 47 47 47 47 47 47 47 47 47 47 76 47 76 76 47 47 47 47 76 76 76 76 76 76 47 76 76 47 76 47 76 76 76 76 47 76 47 76 47 76 47 76 47 47 76 76 47 76 76 47 76 76 47 76 76 47 76 76 76 47 47 76 47 47 76 76 47 47 47 47 47 76 47 76 76 47 47 47 47 47 76 47 47 76 47 47 47 76 47 47 47 76 47 76 47 76 76 47 47 47 76 47 76 47 47 76 76 76 47 76 47 47 47 76 47 47 47 76 47 76 47 76 76 47 76 76 47 76 47 76 76 47 47 76 76 47 76 76 47 47 76 47 76 76 47 76 47 47 76 76 47 76 76 76 47 76 76 76 76 47 76 76 76 76 76 76 47 76 76 76 47 47 47 76 47 47 76 76 76 76 76 47 76 76 47 47 76 47 47 76 76 76 47 76 76 47 76 47 76 47 47 47 76 47 47 47 76 47 47 76 76 47 47 76 47 47 76 47 76 47 47 47 47 76 47 47 76 76 76 76 47 76 47 47 47 47 76 47 76 47 47 76 76 76 47 47 47 47 76 76 76 47 47 76 76 76 47 76 76 76 76 47 76 47 76 47 76 76 76 47 47 47 47 47 47 76 76 47 47 76 47 76 76 76 76 76 76 47 76 47 47 76 76 47 47 47 76 76 47 76 47 47 47 76 76 47 47 47 76 76 47 47 76 47 47 76 47 47 76 47 76 47 47 47 47 47 76 47 47 47 76 76 76 47 76 47 76 47 76 76 76 47 47 76 47 76 47 76 76 47 76 76 76 47 47 47 76 47 47 47 47 47 47 47 76 76 76 47 47 76 47 47 76 47 76 47 47 47 47 47 76 47 76 76 47 47 76 47 47 47 47 76 76 76 47 76 76 76 47 76 76 47 47 76 76 47 47 47 76 47 47 76 76 47 47 47 76 47 47 47 76 76 47 76 76 47 76 47 47 76 47 47 47 76 76 47 76 47 76 76 76 47 47 47 76 76 76 47 47 47 76 47 47 76 47 76 47 47 47 76 47 76 47 76 76 47 47 76 47 76 47 47 47 76 76 76 76 47 47 47 76 47 76 76 47 47 76 76 76 47 76 76 47 76 76 47 47 76 76 76 76 47 76 47 47 76 47 47 47 76 76 76 76 76 76 47 47 76 76 47 47 76 47 76 76 76 47 76 76 47 76 76 76 76 47 47 47 47 76 76 47 76 76 47 76 76 47 47 76 47 47 47 47 76 47 76 76 47 76 76 76 76 76 47 47 76 76 76 47 47 76 76 47 47 76 76 47 47 47 76 76 76 47 47 47 47 47 47 76 47 76 76 76 76 47 47 76 76 47 47 47 47 76 76 76 76 76 76 47 76 76 47 76 47 76 47 76 76 47 76 47 47 47 47 47 76 76 76 76 47 47 47 47 47 76 47 47 76 47 76 76 47 47 47 47 76 76 47 76 47 76 47 76 47 47 76 47 47 76 76 47 47 47 76 47 47 47 76 76 47 47 76 76 76 47 47 76 76 47 76 47 47 76 76 76 47 76 47 76 76 47 47 47 47 47 76 76 47 47 76 76 76 47 76 76 76 76 47 76 47 47 76 76 47 76 76 76 76 47 47 76 47 76 47 76 76 76 76 47 47 47 47 47 76 47 47 76 47 76 47 76 76 47 76 47 47 76 76 47 76 47 47 47 47 76 47 47 76 47 76 47 76 47 76 76 47 76 47 76 76 76 47 76 47 47 76 76 76 76 47 76 47 76 47 76 76 76 76 47 47 76 76 76 76 47 76 47 47 47 47 47 47 76 76 76 76 76 76 76 76 47 76 47 47 47 47 76 47 47 47 76 76 47 76 76 76 47 47 47 76 76 47 76 47 47 76 47 47 47 47 47 76 47 76 76 76 47 76 47 47 47 47 47 76 76 47 47 47 76 76 47 76 47 47 47 76 76 76 47 47 47 76 47 76 76 47 76 76 47 47 47 76 47 76 47 47 47 76 76 47 76 47 47 76 47 47 76 47 47 76 76 47 76 47 47 47 47 76 47 76 47 76 47 76 76 76 47 47 76 47 76 76 47 47 76 76 76 47 47 76 47 47 47 47 76 76 76 47 76 47 76 76 47 47 76 47 47 76 76 47 47 76 47 76 76 76 76 76 47 47 76 76 76 47 47 47 76 76 76 76 47 76 76 47 47 47 76 76 47 47 47 76 47 47 47 47 47 47 76 76 47 76 76 47 76 47 76 76 47 47 76 47 47 47 76 47 76 76 47 47 47 47 47 47 76 76 76 47 76 76 47 47 47 47 76 47 76 47 47 76 76 47 47 47 76 47 76 76 47 76 47 47 47 47 76 47 47 76 76 47 47 47 76 76 76 47 47 76 76 76 76 76 47 47 47 76 76 76 76 76 76 76 47 47 47 47 76 76 47 76 76 76 47 76 76 47 47 47 47 47 47 76 47 47 47 47 47 76 47 47 76 47 47 47 76 76 76 76 47 47 76 47 76 47 47 76 76 47 76 47 76 47 47 76 76 47 47 47 47 76 47 47 47 76 76 47 47 76 47 76 47 47 47 47 76 76 76 76 47 76 47 76 47 47 76 76 76 47 47 47 47 76 76 76 47 76 47 76 76 76 76 